<number of tasks>
250

<cycle time>
1000

<order strength>
0.595


<task times>
1 95
2 329
3 281
4 184
5 175
6 220
7 137
8 119
9 152
10 300
11 310
12 120
13 168
14 113
15 83
16 215
17 49
18 35
19 36
20 87
21 95
22 117
23 247
24 243
25 113
26 122
27 164
28 161
29 261
30 120
31 294
32 177
33 77
34 46
35 52
36 197
37 119
38 103
39 41
40 228
41 51
42 215
43 102
44 47
45 60
46 219
47 61
48 231
49 166
50 128
51 127
52 218
53 114
54 90
55 232
56 89
57 257
58 102
59 245
60 46
61 123
62 236
63 155
64 157
65 191
66 161
67 113
68 173
69 271
70 265
71 138
72 149
73 335
74 241
75 170
76 103
77 108
78 184
79 223
80 71
81 58
82 133
83 174
84 277
85 35
86 40
87 206
88 261
89 182
90 208
91 243
92 46
93 182
94 22
95 60
96 113
97 115
98 190
99 99
100 143
101 53
102 82
103 81
104 115
105 80
106 80
107 169
108 220
109 222
110 34
111 216
112 397
113 84
114 72
115 155
116 70
117 40
118 37
119 177
120 289
121 121
122 154
123 188
124 113
125 41
126 88
127 165
128 104
129 51
130 134
131 192
132 77
133 156
134 42
135 116
136 210
137 144
138 89
139 204
140 89
141 234
142 89
143 142
144 104
145 160
146 124
147 180
148 200
149 110
150 99
151 53
152 122
153 90
154 65
155 43
156 107
157 73
158 38
159 134
160 138
161 206
162 291
163 297
164 236
165 27
166 101
167 162
168 34
169 101
170 72
171 191
172 98
173 86
174 70
175 184
176 204
177 196
178 68
179 107
180 163
181 123
182 206
183 170
184 288
185 36
186 190
187 55
188 90
189 249
190 66
191 147
192 45
193 49
194 106
195 147
196 135
197 97
198 91
199 89
200 99
201 59
202 263
203 21
204 161
205 155
206 81
207 201
208 136
209 100
210 37
211 323
212 25
213 165
214 114
215 100
216 66
217 53
218 172
219 140
220 53
221 443
222 122
223 66
224 157
225 149
226 93
227 97
228 116
229 71
230 179
231 325
232 195
233 82
234 162
235 138
236 104
237 121
238 141
239 147
240 55
241 193
242 85
243 129
244 160
245 184
246 174
247 212
248 117
249 30
250 53

<precedence relations>
1,4
2,3
2,5
2,6
2,7
2,8
3,9
4,13
5,10
5,11
5,12
5,14
6,11
6,12
6,20
7,11
7,12
8,11
8,12
8,13
9,19
10,17
11,15
11,18
11,22
12,16
12,19
12,21
12,22
12,23
13,23
14,20
15,24
16,25
17,27
18,26
19,27
19,28
20,74
20,91
21,27
21,38
21,89
22,28
23,29
24,32
25,30
26,31
27,67
28,32
28,33
29,32
29,33
30,36
31,37
32,34
32,38
32,42
32,44
33,35
33,38
33,39
33,40
33,41
33,43
33,55
33,68
34,45
35,47
36,48
37,49
38,46
38,50
38,102
39,56
40,51
41,51
42,52
42,54
43,53
44,55
44,103
45,57
46,58
47,61
48,59
49,63
50,64
51,60
51,65
51,66
51,67
51,95
52,62
52,68
52,125
53,99
54,67
54,94
54,95
55,66
55,93
56,65
56,66
57,74
58,73
59,69
60,70
61,75
62,71
63,72
64,74
65,74
65,79
66,76
66,77
66,78
67,79
67,91
67,102
68,75
69,80
70,81
71,82
72,84
73,83
74,165
75,86
76,102
76,123
77,108
77,109
77,125
77,146
78,84
78,110
79,85
80,89
81,89
82,88
83,92
84,87
84,91
85,90
85,93
86,93
86,94
86,95
87,96
88,99
89,108
90,97
90,99
90,101
90,103
90,130
91,98
91,99
91,109
92,185
92,190
92,213
93,100
94,102
95,103
96,106
97,104
98,105
99,107
99,108
99,146
100,109
101,110
102,114
103,108
104,114
105,115
106,112
107,113
108,111
108,114
108,117
108,123
109,116
110,165
110,172
111,118
112,119
113,120
114,121
114,122
115,125
115,137
115,161
116,121
116,122
116,123
116,124
117,137
117,155
118,126
119,127
120,128
121,129
122,132
122,133
123,131
123,224
124,167
124,178
124,190
125,130
125,140
125,164
125,234
126,135
127,134
128,137
129,136
130,202
130,203
131,167
132,138
132,139
133,140
133,141
134,146
135,142
136,144
137,143
138,148
138,149
139,145
139,148
139,165
139,202
140,196
140,235
141,147
142,153
143,152
144,153
145,150
145,247
146,167
147,151
147,155
148,154
149,205
150,156
151,157
152,158
153,159
153,160
154,159
155,161
156,164
157,162
158,163
159,164
159,168
160,166
160,214
160,234
161,165
161,167
161,172
162,170
163,171
164,242
164,246
165,169
165,173
166,172
167,188
168,178
168,188
169,174
170,175
171,176
172,187
172,202
173,177
173,178
174,179
175,180
176,181
177,182
177,183
177,185
177,186
177,188
177,190
178,184
178,187
178,189
179,192
180,193
181,191
182,194
183,213
183,225
183,249
184,197
186,240
187,235
188,195
188,201
189,198
189,224
190,196
191,200
192,201
193,202
194,203
195,199
195,204
195,249
197,203
197,206
198,205
198,249
199,208
200,207
201,209
201,211
202,239
202,242
203,212
203,226
203,240
204,210
204,213
205,247
206,212
206,214
207,215
208,216
209,219
210,222
211,223
212,217
212,221
212,224
212,242
212,247
213,218
213,247
214,220
214,225
214,226
215,229
216,233
217,227
218,228
219,233
220,230
221,231
222,234
223,232
225,241
226,235
227,238
228,239
229,236
230,237
231,239
232,240
233,241
233,242
233,244
234,243
234,244
235,243
236,246
237,247
238,245
239,246
240,249
242,248
244,247
244,250

<end>
